proyfinal/src/viki/013/andrea/andrea-localstore/experimentInOfficeAgust.take6/worker_1/a0bb1f09-1d3d-44df-a40b-c9d6a085aabe.als.cnf.out
Reading from standard input... Use '--help' for help.
============================[ Problem Statistics ]=============================
|                                                                             |
|  Number of variables:         87638                                         |
|  Number of clauses:          161767                                         |
|  Parse time:                   0.04 s                                       |
|                                                                             |
============================[ Search Statistics ]==============================
| Conflicts |          ORIGINAL         |          LEARNT          | Progress |
|           |    Vars  Clauses Literals |    Limit  Clauses Lit/Cl |          |
===============================================================================
|       100 |   63871   110605   276164 |    40555      100     23 | 27.120 % |
|       250 |   63871   110605   276164 |    44610      250     33 | 27.120 % |
|       475 |   63871   110605   276164 |    49071      475     50 | 27.120 % |
|       812 |   63833   110537   276003 |    53978      809     44 | 27.163 % |
|      1318 |   63759   110361   275599 |    59376     1313    115 | 27.247 % |
|      2077 |   63677   109866   274395 |    65314     2066     99 | 27.341 % |
|      3216 |   63566   109382   273185 |    71845     3147     90 | 27.468 % |
|      4924 |   63566   109382   273185 |    79030     4855     85 | 27.468 % |
|      7486 |   63485   109229   272830 |    86933     6307     84 | 27.560 % |
|     11330 |   63467   108993   272254 |    95626    10146     87 | 27.581 % |
|     17096 |   63136   107731   269018 |   105189    13283     86 | 27.958 % |
===============================================================================
restarts              : 65
conflicts             : 19402          (7542 /sec)
decisions             : 65658          (0.00 % random) (25524 /sec)
propagations          : 24140551       (9384589 /sec)
conflict literals     : 1639238        (52.80 % deleted)
Memory used           : 48.37 MB
CPU time              : 2.57236 s

INDETERMINATE
